************************************************************************
file with basedata            : mm54_.bas
initial value random generator: 22305860
************************************************************************
projects                      :  1
jobs (incl. supersource/sink ):  12
horizon                       :  81
RESOURCES
  - renewable                 :  2   R
  - nonrenewable              :  2   N
  - doubly constrained        :  0   D
************************************************************************
PROJECT INFORMATION:
pronr.  #jobs rel.date duedate tardcost  MPM-Time
    1     10      0       20        5       20
************************************************************************
PRECEDENCE RELATIONS:
jobnr.    #modes  #successors   successors
   0        1          3           1   2   3
   1        3          2           5   6
   2        3          3           4   6   8
   3        3          2           5  10
   4        3          1           9
   5        3          2           7   8
   6        3          1           7
   7        3          1           9
   8        3          1          11
   9        3          1          11
  10        3          1          11
  11        1          0        
************************************************************************
REQUESTS/DURATIONS:
jobnr. mode duration  R 1  R 2  R 3  R 4  E(W 1)  E(W 2)  E(W 3)
------------------------------------------------------------------------
  0      1     0       0    0    0    0     0       0       0
  1      1     4       9    8    5    5    68      20      20
  2      1     7       7    3   10    8    70      70      56
  3      1     3      10    6    8    8    48      24      24
  4      1     6       8    5    5    9    78      30      54
  5      1     2       8    4   10    6    24      20      12
  6      1     3       3    7    5    6    30      15      18
  7      1     8       3    9    5    5    96      40      40
  8      1     4       8    6    4    9    56      16      36
  9      1     2       8    7    9   10    30      18      20
 10      1     2       4    5    8    7    18      16      14
 11      1     0       0    0    0    0     0       0       0
************************************************************************
RESOURCEAVAILABILITIES:
  R 1  R 2  R 3
   38   56   60
************************************************************************
RESOURCE LIMITS:
jobnr.  l(R 1)  u(R 1)  l(R 2)  u(R 2)  l(R 3)  u(R 3)
------------------------------------------------------------------------
  0        0       0       0       0       0       0
  1        9      17       3       5       3       5
  2        6      10       5      10       4       8
  3        8      16       4       8       4       8
  4        7      13       3       5       5       9
  5        6      12       5      10       3       6
  6        6      10       3       5       3       6
  7        7      12       3       5       3       5
  8        7      14       2       4       5       9
  9        8      15       5       9       5      10
 10        5       9       4       8       4       7
 11        0       0       0       0       0       0
************************************************************************
SCENARIOS:
------------------------------------------------------------------------
RESOURCE k = 1
s = 1: (0, 76, 68, 75, 76, 23, 32, 132, 48, 33, 12, 0)
s = 2: (0, 67, 79, 56, 62, 19, 33, 105, 37, 31, 14, 0)
s = 3: (0, 48, 73, 45, 42, 19, 25, 83, 51, 38, 16, 0)
s = 4: (0, 104, 74, 42, 60, 16, 24, 90, 66, 22, 23, 0)
s = 5: (0, 42, 101, 38, 47, 15, 20, 77, 48, 25, 21, 0)
s = 6: (0, 49, 82, 38, 70, 16, 33, 96, 68, 21, 15, 0)
s = 7: (0, 43, 63, 56, 125, 31, 46, 92, 62, 17, 15, 0)
s = 8: (0, 104, 74, 61, 60, 36, 27, 93, 49, 24, 26, 0)
s = 9: (0, 56, 55, 36, 54, 22, 24, 64, 90, 22, 25, 0)
s = 10: (0, 47, 68, 41, 63, 35, 29, 124, 39, 29, 15, 0)
s = 11: (0, 54, 46, 35, 108, 23, 37, 56, 61, 48, 16, 0)
s = 12: (0, 56, 86, 34, 49, 17, 19, 150, 90, 19, 13, 0)
s = 13: (0, 80, 48, 29, 77, 27, 21, 66, 62, 33, 15, 0)
s = 14: (0, 63, 44, 43, 81, 22, 33, 56, 46, 26, 23, 0)
s = 15: (0, 125, 60, 35, 115, 29, 26, 97, 45, 20, 12, 0)
s = 16: (0, 57, 70, 44, 57, 17, 34, 97, 44, 41, 14, 0)
s = 17: (0, 52, 89, 73, 83, 38, 19, 106, 64, 23, 22, 0)
s = 18: (0, 39, 52, 32, 79, 20, 23, 109, 64, 33, 14, 0)
s = 19: (0, 46, 69, 33, 70, 27, 32, 112, 81, 23, 15, 0)
s = 20: (0, 51, 88, 42, 58, 20, 18, 143, 74, 31, 19, 0)
s = 21: (0, 57, 89, 54, 131, 21, 35, 104, 64, 37, 21, 0)
s = 22: (0, 92, 49, 41, 143, 39, 31, 79, 80, 32, 13, 0)
s = 23: (0, 52, 69, 38, 95, 33, 38, 104, 60, 22, 16, 0)
s = 24: (0, 35, 70, 33, 96, 20, 22, 127, 93, 29, 13, 0)
s = 25: (0, 81, 67, 79, 91, 23, 29, 98, 46, 41, 14, 0)
s = 26: (0, 83, 72, 86, 56, 35, 29, 73, 41, 35, 28, 0)
s = 27: (0, 86, 68, 65, 112, 24, 23, 62, 37, 25, 19, 0)
s = 28: (0, 85, 77, 50, 63, 28, 20, 111, 46, 23, 15, 0)
s = 29: (0, 70, 47, 58, 111, 14, 19, 80, 76, 22, 18, 0)
s = 30: (0, 52, 46, 44, 100, 23, 24, 99, 58, 33, 22, 0)
s = 31: (0, 71, 83, 38, 55, 22, 21, 70, 44, 42, 26, 0)
s = 32: (0, 57, 66, 73, 78, 19, 22, 139, 83, 32, 25, 0)
s = 33: (0, 43, 55, 33, 52, 32, 45, 94, 64, 33, 17, 0)
s = 34: (0, 109, 82, 28, 59, 20, 30, 56, 44, 18, 16, 0)
s = 35: (0, 62, 96, 39, 99, 30, 25, 118, 77, 36, 14, 0)
s = 36: (0, 39, 65, 66, 58, 22, 52, 117, 39, 32, 20, 0)
s = 37: (0, 85, 87, 43, 132, 18, 32, 125, 83, 37, 11, 0)
s = 38: (0, 86, 43, 48, 115, 18, 44, 65, 88, 41, 20, 0)
s = 39: (0, 48, 60, 31, 113, 28, 18, 57, 64, 27, 25, 0)
s = 40: (0, 69, 67, 52, 88, 25, 30, 80, 90, 26, 14, 0)
s = 41: (0, 48, 75, 33, 93, 33, 26, 121, 45, 35, 11, 0)
s = 42: (0, 48, 78, 55, 45, 33, 18, 82, 55, 28, 10, 0)
s = 43: (0, 96, 59, 37, 68, 19, 22, 141, 72, 28, 16, 0)
s = 44: (0, 87, 53, 88, 51, 39, 29, 72, 44, 24, 13, 0)
s = 45: (0, 86, 97, 38, 72, 29, 18, 136, 59, 18, 27, 0)
s = 46: (0, 84, 69, 51, 80, 21, 16, 60, 55, 26, 13, 0)
s = 47: (0, 112, 61, 53, 59, 22, 17, 100, 63, 18, 29, 0)
s = 48: (0, 60, 59, 66, 76, 32, 32, 84, 63, 52, 23, 0)
s = 49: (0, 35, 58, 28, 105, 19, 33, 129, 61, 34, 22, 0)
s = 50: (0, 73, 71, 49, 84, 28, 20, 107, 44, 44, 24, 0)
s = 51: (0, 46, 59, 73, 100, 19, 32, 99, 55, 27, 14, 0)
s = 52: (0, 53, 63, 61, 104, 25, 36, 82, 34, 32, 25, 0)
s = 53: (0, 47, 49, 38, 52, 22, 20, 130, 73, 36, 17, 0)
s = 54: (0, 114, 40, 61, 49, 16, 35, 67, 67, 54, 21, 0)
s = 55: (0, 39, 68, 31, 69, 13, 37, 102, 35, 32, 17, 0)
s = 56: (0, 52, 55, 57, 65, 25, 29, 60, 45, 35, 13, 0)
s = 57: (0, 43, 84, 59, 80, 34, 29, 71, 41, 24, 15, 0)
s = 58: (0, 74, 79, 42, 43, 15, 25, 88, 42, 29, 18, 0)
s = 59: (0, 84, 100, 47, 90, 28, 24, 131, 32, 17, 26, 0)
s = 60: (0, 54, 58, 51, 132, 17, 27, 109, 67, 37, 15, 0)
s = 61: (0, 68, 55, 52, 92, 15, 44, 89, 53, 20, 30, 0)
s = 62: (0, 57, 53, 60, 67, 22, 43, 116, 54, 39, 27, 0)
s = 63: (0, 85, 72, 58, 91, 22, 36, 68, 35, 45, 25, 0)
s = 64: (0, 91, 51, 51, 68, 25, 43, 72, 44, 26, 17, 0)
s = 65: (0, 82, 46, 35, 73, 19, 34, 122, 88, 21, 16, 0)
s = 66: (0, 82, 88, 45, 58, 18, 20, 62, 75, 24, 18, 0)
s = 67: (0, 96, 58, 33, 66, 24, 20, 84, 60, 47, 21, 0)
s = 68: (0, 68, 74, 66, 76, 24, 35, 83, 36, 23, 16, 0)
s = 69: (0, 78, 97, 50, 54, 18, 25, 65, 39, 24, 18, 0)
s = 70: (0, 39, 52, 64, 81, 18, 31, 80, 44, 45, 14, 0)
s = 71: (0, 49, 99, 37, 42, 19, 24, 159, 58, 32, 16, 0)
s = 72: (0, 66, 54, 55, 86, 18, 23, 65, 40, 36, 22, 0)
s = 73: (0, 60, 46, 47, 96, 18, 32, 70, 51, 39, 16, 0)
s = 74: (0, 66, 79, 34, 63, 28, 25, 96, 52, 29, 25, 0)
s = 75: (0, 74, 50, 64, 90, 24, 18, 78, 80, 19, 19, 0)
s = 76: (0, 86, 43, 40, 74, 14, 24, 77, 68, 20, 21, 0)
s = 77: (0, 81, 100, 54, 71, 37, 48, 99, 53, 38, 17, 0)
s = 78: (0, 76, 50, 37, 63, 26, 37, 130, 72, 19, 22, 0)
s = 79: (0, 49, 74, 63, 78, 35, 30, 87, 47, 34, 24, 0)
s = 80: (0, 108, 92, 62, 99, 21, 36, 81, 50, 34, 19, 0)
s = 81: (0, 45, 89, 65, 50, 20, 25, 102, 38, 43, 26, 0)
s = 82: (0, 42, 92, 31, 78, 28, 35, 97, 61, 19, 19, 0)
s = 83: (0, 83, 58, 83, 64, 24, 19, 66, 35, 31, 19, 0)
s = 84: (0, 48, 111, 54, 68, 26, 27, 85, 64, 27, 15, 0)
s = 85: (0, 71, 61, 60, 115, 19, 24, 80, 67, 30, 15, 0)
s = 86: (0, 86, 92, 37, 60, 26, 25, 110, 71, 23, 23, 0)
s = 87: (0, 58, 65, 79, 93, 27, 41, 165, 52, 25, 19, 0)
s = 88: (0, 75, 66, 49, 52, 20, 27, 67, 56, 21, 16, 0)
s = 89: (0, 83, 69, 47, 61, 19, 42, 95, 83, 24, 20, 0)
s = 90: (0, 60, 93, 51, 68, 18, 21, 101, 83, 22, 14, 0)
s = 91: (0, 58, 81, 71, 96, 23, 24, 101, 63, 28, 19, 0)
s = 92: (0, 78, 56, 37, 85, 31, 42, 135, 55, 33, 20, 0)
s = 93: (0, 63, 103, 35, 114, 18, 28, 77, 75, 26, 16, 0)
s = 94: (0, 67, 76, 66, 84, 25, 25, 98, 59, 34, 18, 0)
s = 95: (0, 54, 93, 71, 72, 22, 34, 89, 79, 31, 11, 0)
s = 96: (0, 71, 43, 33, 97, 20, 32, 112, 78, 23, 18, 0)
s = 97: (0, 77, 42, 43, 74, 28, 28, 112, 47, 48, 11, 0)
s = 98: (0, 65, 50, 32, 48, 21, 28, 76, 30, 45, 23, 0)
s = 99: (0, 87, 56, 35, 97, 16, 31, 118, 63, 24, 19, 0)
s = 100: (0, 80, 99, 71, 68, 29, 26, 99, 43, 19, 14, 0)
s = 101: (0, 53, 89, 46, 78, 27, 25, 147, 47, 31, 17, 0)
s = 102: (0, 89, 51, 42, 59, 21, 46, 79, 72, 30, 25, 0)
s = 103: (0, 51, 55, 59, 51, 22, 28, 81, 38, 32, 15, 0)
s = 104: (0, 68, 87, 55, 78, 26, 41, 76, 50, 19, 22, 0)
s = 105: (0, 71, 88, 65, 46, 27, 42, 145, 69, 36, 19, 0)
s = 106: (0, 88, 47, 57, 67, 15, 48, 126, 35, 19, 20, 0)
s = 107: (0, 70, 52, 41, 74, 27, 28, 66, 49, 23, 15, 0)
s = 108: (0, 78, 69, 75, 103, 28, 28, 87, 37, 25, 20, 0)
s = 109: (0, 97, 54, 55, 70, 26, 27, 87, 65, 35, 19, 0)
s = 110: (0, 48, 91, 44, 69, 23, 35, 134, 35, 21, 18, 0)
s = 111: (0, 63, 50, 34, 66, 23, 19, 79, 35, 30, 13, 0)
s = 112: (0, 52, 78, 68, 55, 18, 38, 80, 35, 24, 26, 0)
s = 113: (0, 49, 69, 41, 86, 15, 22, 76, 64, 30, 26, 0)
s = 114: (0, 54, 67, 44, 63, 23, 16, 120, 89, 40, 17, 0)
s = 115: (0, 45, 76, 31, 77, 29, 34, 75, 47, 39, 21, 0)
s = 116: (0, 53, 59, 31, 61, 27, 50, 72, 49, 27, 13, 0)
s = 117: (0, 74, 46, 51, 44, 24, 23, 89, 54, 26, 13, 0)
s = 118: (0, 69, 57, 56, 69, 17, 32, 106, 40, 28, 20, 0)
s = 119: (0, 62, 71, 52, 62, 31, 20, 134, 57, 23, 22, 0)
s = 120: (0, 43, 102, 42, 70, 33, 38, 83, 56, 19, 20, 0)
s = 121: (0, 51, 59, 35, 73, 27, 36, 183, 45, 39, 21, 0)
s = 122: (0, 43, 86, 30, 54, 22, 55, 201, 45, 35, 24, 0)
s = 123: (0, 64, 64, 47, 57, 26, 25, 85, 43, 32, 14, 0)
s = 124: (0, 86, 94, 56, 93, 19, 22, 90, 76, 37, 15, 0)
s = 125: (0, 79, 91, 30, 95, 28, 23, 64, 70, 41, 13, 0)
s = 126: (0, 70, 88, 51, 86, 19, 25, 60, 85, 25, 18, 0)
s = 127: (0, 40, 70, 61, 75, 28, 32, 116, 54, 26, 17, 0)
s = 128: (0, 80, 51, 30, 81, 22, 31, 99, 69, 24, 11, 0)
s = 129: (0, 48, 40, 36, 48, 27, 20, 106, 78, 35, 24, 0)
s = 130: (0, 90, 62, 57, 55, 38, 34, 84, 44, 42, 22, 0)
s = 131: (0, 63, 95, 74, 60, 17, 19, 123, 35, 47, 13, 0)
s = 132: (0, 88, 95, 29, 67, 27, 24, 65, 63, 28, 16, 0)
s = 133: (0, 45, 67, 47, 89, 16, 25, 169, 76, 34, 19, 0)
s = 134: (0, 37, 69, 78, 59, 19, 28, 98, 44, 31, 16, 0)
s = 135: (0, 44, 52, 43, 60, 16, 44, 60, 51, 49, 20, 0)
s = 136: (0, 50, 107, 65, 97, 23, 19, 140, 61, 31, 20, 0)
s = 137: (0, 67, 72, 36, 96, 26, 31, 59, 55, 29, 17, 0)
s = 138: (0, 74, 64, 54, 103, 23, 32, 109, 90, 38, 22, 0)
s = 139: (0, 58, 43, 46, 107, 27, 38, 77, 46, 32, 21, 0)
s = 140: (0, 41, 61, 37, 109, 22, 27, 114, 53, 26, 13, 0)
s = 141: (0, 53, 51, 52, 125, 15, 26, 151, 33, 44, 29, 0)
s = 142: (0, 52, 88, 42, 76, 29, 41, 100, 39, 25, 22, 0)
s = 143: (0, 99, 109, 54, 73, 22, 34, 96, 82, 31, 25, 0)
s = 144: (0, 103, 62, 33, 43, 27, 30, 75, 67, 30, 15, 0)
s = 145: (0, 62, 59, 47, 120, 28, 17, 113, 51, 42, 16, 0)
s = 146: (0, 80, 51, 50, 62, 24, 24, 138, 34, 23, 38, 0)
s = 147: (0, 96, 93, 50, 105, 26, 39, 147, 68, 29, 12, 0)
s = 148: (0, 85, 60, 54, 112, 27, 44, 63, 45, 31, 28, 0)
s = 149: (0, 66, 64, 51, 57, 22, 20, 107, 48, 22, 15, 0)
s = 150: (0, 80, 67, 42, 56, 17, 21, 60, 56, 26, 17, 0)
s = 151: (0, 81, 53, 29, 87, 22, 28, 63, 53, 31, 16, 0)
s = 152: (0, 104, 48, 37, 59, 15, 27, 72, 44, 26, 23, 0)
s = 153: (0, 90, 67, 33, 86, 33, 43, 92, 50, 17, 22, 0)
s = 154: (0, 84, 68, 62, 76, 25, 38, 65, 58, 20, 10, 0)
s = 155: (0, 44, 92, 37, 69, 19, 36, 98, 75, 30, 17, 0)
s = 156: (0, 60, 48, 31, 72, 42, 41, 125, 72, 23, 23, 0)
s = 157: (0, 76, 47, 31, 143, 18, 40, 175, 80, 31, 15, 0)
s = 158: (0, 62, 57, 37, 110, 19, 25, 78, 48, 28, 23, 0)
s = 159: (0, 52, 103, 55, 61, 31, 35, 72, 49, 25, 12, 0)
s = 160: (0, 51, 95, 51, 135, 34, 26, 65, 42, 22, 24, 0)
s = 161: (0, 68, 98, 44, 93, 27, 19, 115, 70, 47, 16, 0)
s = 162: (0, 61, 65, 35, 77, 17, 30, 78, 60, 20, 15, 0)
s = 163: (0, 61, 59, 43, 122, 26, 23, 102, 70, 31, 21, 0)
s = 164: (0, 47, 50, 47, 45, 30, 28, 94, 91, 29, 17, 0)
s = 165: (0, 55, 114, 43, 90, 18, 40, 97, 50, 40, 15, 0)
s = 166: (0, 98, 99, 60, 80, 20, 33, 90, 87, 47, 12, 0)
s = 167: (0, 55, 86, 34, 78, 23, 23, 61, 69, 46, 13, 0)
s = 168: (0, 83, 111, 58, 43, 33, 22, 129, 75, 25, 16, 0)
s = 169: (0, 50, 56, 64, 66, 26, 30, 71, 70, 36, 21, 0)
s = 170: (0, 68, 63, 26, 105, 26, 23, 82, 45, 41, 20, 0)
s = 171: (0, 64, 53, 38, 70, 44, 38, 81, 51, 30, 22, 0)
s = 172: (0, 61, 46, 40, 59, 29, 24, 112, 66, 24, 14, 0)
s = 173: (0, 57, 64, 27, 74, 23, 28, 57, 46, 21, 21, 0)
s = 174: (0, 65, 116, 26, 66, 18, 28, 83, 55, 43, 16, 0)
s = 175: (0, 99, 42, 60, 83, 24, 21, 103, 58, 36, 19, 0)
s = 176: (0, 45, 51, 43, 76, 30, 33, 78, 48, 28, 16, 0)
s = 177: (0, 92, 70, 50, 91, 20, 30, 86, 55, 33, 24, 0)
s = 178: (0, 74, 80, 50, 73, 45, 23, 103, 47, 24, 18, 0)
s = 179: (0, 75, 48, 53, 108, 21, 17, 97, 54, 28, 14, 0)
s = 180: (0, 93, 49, 62, 94, 19, 23, 150, 60, 29, 15, 0)
s = 181: (0, 82, 65, 57, 50, 17, 38, 99, 43, 39, 14, 0)
s = 182: (0, 55, 82, 65, 98, 20, 37, 102, 79, 32, 25, 0)
s = 183: (0, 57, 43, 47, 67, 30, 31, 123, 41, 49, 19, 0)
s = 184: (0, 92, 56, 76, 70, 26, 32, 101, 93, 21, 15, 0)
s = 185: (0, 68, 95, 41, 64, 21, 30, 106, 58, 19, 27, 0)
s = 186: (0, 85, 73, 35, 54, 18, 40, 83, 54, 28, 13, 0)
s = 187: (0, 65, 68, 43, 54, 21, 28, 111, 70, 21, 14, 0)
s = 188: (0, 54, 76, 33, 65, 19, 42, 140, 32, 20, 14, 0)
s = 189: (0, 50, 96, 54, 101, 30, 30, 53, 64, 38, 14, 0)
s = 190: (0, 54, 60, 47, 77, 39, 45, 139, 32, 23, 21, 0)
s = 191: (0, 75, 88, 52, 97, 31, 18, 112, 50, 31, 13, 0)
s = 192: (0, 82, 57, 37, 63, 26, 32, 59, 55, 30, 25, 0)
s = 193: (0, 116, 80, 73, 79, 31, 38, 134, 53, 40, 19, 0)
s = 194: (0, 53, 71, 45, 64, 21, 28, 114, 36, 39, 19, 0)
s = 195: (0, 64, 95, 48, 62, 17, 28, 100, 75, 38, 18, 0)
s = 196: (0, 56, 89, 58, 120, 16, 35, 84, 43, 31, 15, 0)
s = 197: (0, 114, 90, 50, 84, 28, 45, 112, 44, 33, 14, 0)
s = 198: (0, 77, 75, 36, 59, 18, 18, 100, 47, 27, 20, 0)
s = 199: (0, 86, 86, 64, 99, 24, 28, 96, 58, 23, 18, 0)
s = 200: (0, 90, 61, 58, 108, 24, 25, 85, 65, 33, 21, 0)
------------------------------------------------------------------------
RESOURCE k = 2
s = 1: (0, 23, 68, 38, 30, 19, 16, 55, 14, 20, 11, 0)
s = 2: (0, 20, 79, 28, 24, 16, 17, 44, 11, 19, 13, 0)
s = 3: (0, 15, 73, 23, 16, 16, 13, 35, 15, 23, 14, 0)
s = 4: (0, 31, 74, 21, 23, 13, 12, 38, 19, 14, 20, 0)
s = 5: (0, 13, 101, 19, 19, 12, 10, 32, 14, 15, 19, 0)
s = 6: (0, 15, 82, 19, 27, 13, 17, 40, 20, 13, 13, 0)
s = 7: (0, 13, 63, 28, 48, 26, 23, 39, 18, 11, 13, 0)
s = 8: (0, 31, 74, 31, 23, 30, 14, 39, 14, 15, 24, 0)
s = 9: (0, 17, 55, 18, 21, 19, 12, 27, 26, 13, 23, 0)
s = 10: (0, 14, 68, 21, 25, 29, 15, 52, 12, 18, 14, 0)
s = 11: (0, 16, 46, 18, 42, 19, 19, 23, 18, 29, 15, 0)
s = 12: (0, 17, 86, 17, 19, 14, 10, 63, 26, 12, 12, 0)
s = 13: (0, 24, 48, 15, 30, 22, 11, 28, 18, 20, 14, 0)
s = 14: (0, 19, 44, 22, 32, 18, 17, 24, 14, 16, 21, 0)
s = 15: (0, 37, 60, 18, 44, 24, 13, 41, 13, 12, 11, 0)
s = 16: (0, 17, 70, 22, 22, 14, 17, 41, 13, 25, 12, 0)
s = 17: (0, 16, 89, 37, 32, 32, 10, 45, 19, 14, 19, 0)
s = 18: (0, 12, 52, 16, 31, 17, 12, 46, 19, 20, 12, 0)
s = 19: (0, 14, 69, 17, 27, 23, 16, 47, 23, 14, 13, 0)
s = 20: (0, 15, 88, 21, 23, 17, 9, 60, 21, 19, 17, 0)
s = 21: (0, 17, 89, 27, 51, 17, 18, 44, 19, 23, 18, 0)
s = 22: (0, 27, 49, 21, 55, 32, 16, 33, 23, 19, 12, 0)
s = 23: (0, 16, 69, 19, 37, 28, 19, 44, 17, 13, 14, 0)
s = 24: (0, 11, 70, 17, 37, 17, 11, 53, 27, 18, 11, 0)
s = 25: (0, 24, 67, 40, 35, 19, 15, 41, 13, 25, 12, 0)
s = 26: (0, 25, 72, 43, 22, 30, 15, 31, 12, 21, 25, 0)
s = 27: (0, 26, 68, 33, 43, 20, 12, 26, 11, 15, 17, 0)
s = 28: (0, 25, 77, 25, 25, 24, 10, 47, 13, 14, 13, 0)
s = 29: (0, 21, 47, 29, 43, 12, 10, 34, 22, 13, 16, 0)
s = 30: (0, 16, 46, 22, 39, 19, 12, 42, 17, 20, 19, 0)
s = 31: (0, 21, 83, 19, 21, 19, 11, 29, 13, 25, 24, 0)
s = 32: (0, 17, 66, 37, 30, 16, 11, 58, 24, 19, 22, 0)
s = 33: (0, 13, 55, 17, 20, 27, 23, 40, 19, 20, 15, 0)
s = 34: (0, 32, 82, 14, 23, 17, 15, 24, 13, 11, 15, 0)
s = 35: (0, 19, 96, 20, 39, 25, 13, 50, 22, 22, 12, 0)
s = 36: (0, 12, 65, 33, 23, 19, 26, 49, 11, 19, 18, 0)
s = 37: (0, 25, 87, 22, 51, 15, 16, 52, 24, 23, 10, 0)
s = 38: (0, 26, 43, 24, 44, 15, 22, 28, 26, 25, 18, 0)
s = 39: (0, 14, 60, 16, 44, 23, 9, 24, 19, 17, 22, 0)
s = 40: (0, 21, 67, 26, 34, 21, 15, 34, 26, 16, 12, 0)
s = 41: (0, 14, 75, 17, 36, 28, 13, 51, 13, 21, 10, 0)
s = 42: (0, 14, 78, 28, 18, 27, 9, 34, 16, 17, 9, 0)
s = 43: (0, 29, 59, 19, 26, 16, 11, 59, 21, 17, 15, 0)
s = 44: (0, 26, 53, 44, 20, 33, 15, 30, 13, 15, 12, 0)
s = 45: (0, 26, 97, 19, 28, 25, 9, 57, 17, 11, 24, 0)
s = 46: (0, 25, 69, 26, 31, 18, 8, 25, 16, 16, 12, 0)
s = 47: (0, 33, 61, 27, 23, 19, 9, 42, 18, 11, 26, 0)
s = 48: (0, 18, 59, 33, 29, 27, 16, 35, 18, 32, 21, 0)
s = 49: (0, 11, 58, 14, 41, 16, 17, 54, 18, 21, 19, 0)
s = 50: (0, 22, 71, 25, 33, 23, 10, 45, 13, 27, 22, 0)
s = 51: (0, 14, 59, 37, 39, 16, 16, 41, 16, 16, 13, 0)
s = 52: (0, 16, 63, 31, 40, 21, 18, 34, 10, 19, 23, 0)
s = 53: (0, 14, 49, 19, 20, 18, 10, 54, 21, 22, 15, 0)
s = 54: (0, 34, 40, 31, 19, 13, 18, 28, 20, 32, 19, 0)
s = 55: (0, 12, 68, 16, 27, 11, 19, 43, 10, 20, 15, 0)
s = 56: (0, 16, 55, 29, 25, 21, 15, 25, 13, 21, 12, 0)
s = 57: (0, 13, 84, 30, 31, 28, 15, 30, 12, 15, 13, 0)
s = 58: (0, 22, 79, 21, 17, 13, 13, 37, 12, 18, 16, 0)
s = 59: (0, 25, 100, 24, 35, 23, 12, 55, 9, 10, 23, 0)
s = 60: (0, 16, 58, 26, 51, 15, 14, 46, 20, 22, 13, 0)
s = 61: (0, 20, 55, 26, 36, 13, 22, 37, 16, 12, 27, 0)
s = 62: (0, 17, 53, 30, 26, 18, 22, 49, 16, 23, 24, 0)
s = 63: (0, 25, 72, 29, 35, 18, 18, 29, 10, 27, 23, 0)
s = 64: (0, 27, 51, 26, 27, 21, 22, 30, 13, 16, 15, 0)
s = 65: (0, 24, 46, 18, 28, 16, 17, 51, 26, 13, 14, 0)
s = 66: (0, 24, 88, 23, 23, 15, 10, 26, 22, 14, 16, 0)
s = 67: (0, 29, 58, 17, 26, 20, 10, 35, 17, 28, 19, 0)
s = 68: (0, 20, 74, 33, 30, 20, 18, 35, 11, 14, 14, 0)
s = 69: (0, 23, 97, 25, 21, 15, 13, 27, 11, 14, 16, 0)
s = 70: (0, 12, 52, 32, 32, 15, 16, 33, 13, 27, 13, 0)
s = 71: (0, 15, 99, 19, 17, 16, 12, 67, 17, 20, 14, 0)
s = 72: (0, 20, 54, 28, 33, 15, 12, 28, 12, 22, 20, 0)
s = 73: (0, 18, 46, 24, 37, 15, 16, 29, 15, 23, 15, 0)
s = 74: (0, 20, 79, 17, 24, 23, 13, 40, 15, 18, 22, 0)
s = 75: (0, 22, 50, 32, 35, 20, 9, 33, 23, 12, 17, 0)
s = 76: (0, 26, 43, 20, 29, 11, 12, 32, 20, 12, 18, 0)
s = 77: (0, 24, 100, 27, 28, 31, 24, 41, 16, 23, 15, 0)
s = 78: (0, 23, 50, 19, 24, 21, 19, 54, 21, 12, 19, 0)
s = 79: (0, 15, 74, 32, 30, 29, 15, 36, 14, 21, 21, 0)
s = 80: (0, 32, 92, 31, 38, 17, 18, 34, 15, 21, 17, 0)
s = 81: (0, 14, 89, 33, 20, 17, 13, 43, 11, 26, 23, 0)
s = 82: (0, 13, 92, 16, 30, 23, 18, 41, 18, 12, 17, 0)
s = 83: (0, 25, 58, 42, 25, 20, 10, 28, 10, 19, 17, 0)
s = 84: (0, 14, 111, 27, 26, 22, 14, 36, 19, 17, 13, 0)
s = 85: (0, 21, 61, 30, 45, 16, 12, 34, 19, 18, 13, 0)
s = 86: (0, 26, 92, 19, 23, 22, 13, 46, 21, 14, 20, 0)
s = 87: (0, 17, 65, 40, 36, 22, 21, 69, 15, 15, 17, 0)
s = 88: (0, 22, 66, 25, 20, 17, 14, 28, 16, 13, 14, 0)
s = 89: (0, 25, 69, 24, 24, 16, 21, 40, 24, 14, 18, 0)
s = 90: (0, 18, 93, 26, 26, 15, 11, 42, 24, 14, 13, 0)
s = 91: (0, 17, 81, 36, 37, 19, 12, 42, 18, 17, 17, 0)
s = 92: (0, 23, 56, 19, 33, 26, 21, 57, 16, 20, 18, 0)
s = 93: (0, 19, 103, 18, 44, 15, 14, 32, 22, 16, 15, 0)
s = 94: (0, 20, 76, 33, 33, 21, 13, 41, 17, 21, 16, 0)
s = 95: (0, 16, 93, 36, 28, 18, 17, 37, 23, 19, 10, 0)
s = 96: (0, 21, 43, 17, 37, 17, 16, 47, 23, 14, 16, 0)
s = 97: (0, 23, 42, 22, 29, 24, 14, 47, 14, 29, 10, 0)
s = 98: (0, 19, 50, 16, 19, 18, 14, 32, 9, 27, 21, 0)
s = 99: (0, 26, 56, 18, 38, 13, 16, 49, 18, 14, 17, 0)
s = 100: (0, 24, 99, 36, 27, 24, 13, 41, 13, 12, 13, 0)
s = 101: (0, 16, 89, 23, 30, 23, 13, 62, 14, 19, 15, 0)
s = 102: (0, 26, 51, 21, 23, 18, 23, 33, 21, 18, 22, 0)
s = 103: (0, 15, 55, 30, 20, 19, 14, 34, 11, 19, 13, 0)
s = 104: (0, 20, 87, 28, 30, 22, 21, 32, 15, 12, 20, 0)
s = 105: (0, 21, 88, 33, 18, 23, 21, 61, 20, 22, 17, 0)
s = 106: (0, 26, 47, 29, 26, 13, 24, 53, 10, 12, 18, 0)
s = 107: (0, 21, 52, 21, 29, 23, 14, 28, 14, 14, 14, 0)
s = 108: (0, 23, 69, 38, 40, 23, 14, 36, 11, 15, 17, 0)
s = 109: (0, 29, 54, 28, 27, 22, 14, 36, 19, 21, 17, 0)
s = 110: (0, 15, 91, 22, 27, 20, 18, 56, 10, 13, 16, 0)
s = 111: (0, 19, 50, 17, 26, 19, 10, 33, 10, 18, 12, 0)
s = 112: (0, 16, 78, 34, 21, 15, 19, 34, 10, 15, 23, 0)
s = 113: (0, 15, 69, 21, 34, 13, 11, 32, 19, 18, 23, 0)
s = 114: (0, 16, 67, 22, 25, 19, 8, 50, 26, 24, 15, 0)
s = 115: (0, 14, 76, 16, 30, 24, 17, 32, 14, 24, 19, 0)
s = 116: (0, 16, 59, 16, 24, 23, 25, 30, 14, 17, 11, 0)
s = 117: (0, 22, 46, 26, 17, 20, 12, 37, 16, 16, 12, 0)
s = 118: (0, 21, 57, 28, 27, 15, 16, 44, 12, 17, 17, 0)
s = 119: (0, 19, 71, 26, 24, 26, 10, 56, 17, 14, 19, 0)
s = 120: (0, 13, 102, 21, 27, 27, 19, 35, 16, 12, 18, 0)
s = 121: (0, 15, 59, 18, 29, 23, 18, 77, 13, 24, 19, 0)
s = 122: (0, 13, 86, 15, 21, 19, 28, 84, 13, 21, 21, 0)
s = 123: (0, 19, 64, 24, 22, 22, 13, 36, 13, 19, 13, 0)
s = 124: (0, 26, 94, 28, 36, 16, 11, 38, 22, 22, 13, 0)
s = 125: (0, 24, 91, 15, 37, 24, 12, 27, 20, 25, 12, 0)
s = 126: (0, 21, 88, 26, 34, 16, 13, 25, 25, 15, 16, 0)
s = 127: (0, 12, 70, 31, 29, 23, 16, 48, 16, 16, 15, 0)
s = 128: (0, 24, 51, 15, 31, 19, 16, 41, 20, 14, 10, 0)
s = 129: (0, 15, 40, 18, 19, 23, 10, 45, 23, 21, 21, 0)
s = 130: (0, 27, 62, 29, 21, 32, 17, 35, 13, 25, 20, 0)
s = 131: (0, 19, 95, 37, 23, 14, 10, 52, 10, 28, 12, 0)
s = 132: (0, 26, 95, 15, 26, 22, 12, 28, 18, 17, 15, 0)
s = 133: (0, 14, 67, 24, 35, 13, 13, 71, 22, 21, 17, 0)
s = 134: (0, 11, 69, 39, 23, 16, 14, 41, 13, 19, 14, 0)
s = 135: (0, 13, 52, 22, 23, 14, 22, 25, 15, 29, 18, 0)
s = 136: (0, 15, 107, 33, 38, 19, 10, 59, 18, 19, 18, 0)
s = 137: (0, 20, 72, 18, 37, 22, 16, 25, 16, 18, 15, 0)
s = 138: (0, 22, 64, 27, 40, 19, 16, 46, 26, 23, 19, 0)
s = 139: (0, 18, 43, 23, 41, 23, 19, 33, 14, 20, 19, 0)
s = 140: (0, 13, 61, 19, 42, 19, 14, 48, 16, 16, 11, 0)
s = 141: (0, 16, 51, 26, 48, 12, 13, 63, 10, 26, 26, 0)
s = 142: (0, 16, 88, 21, 30, 24, 21, 42, 11, 15, 20, 0)
s = 143: (0, 29, 109, 27, 28, 19, 17, 40, 24, 19, 22, 0)
s = 144: (0, 31, 62, 17, 17, 23, 15, 32, 19, 18, 14, 0)
s = 145: (0, 19, 59, 24, 47, 23, 9, 47, 15, 26, 14, 0)
s = 146: (0, 24, 51, 25, 24, 20, 12, 58, 10, 14, 34, 0)
s = 147: (0, 29, 93, 25, 41, 22, 20, 61, 20, 18, 10, 0)
s = 148: (0, 25, 60, 27, 43, 23, 22, 26, 13, 19, 25, 0)
s = 149: (0, 20, 64, 26, 22, 18, 10, 45, 14, 13, 14, 0)
s = 150: (0, 24, 67, 21, 22, 14, 11, 25, 16, 16, 16, 0)
s = 151: (0, 24, 53, 15, 34, 18, 14, 26, 15, 19, 14, 0)
s = 152: (0, 31, 48, 19, 23, 13, 14, 30, 13, 16, 21, 0)
s = 153: (0, 27, 67, 17, 33, 27, 22, 39, 15, 11, 19, 0)
s = 154: (0, 25, 68, 31, 30, 21, 19, 27, 17, 12, 9, 0)
s = 155: (0, 13, 92, 19, 27, 16, 18, 41, 22, 18, 15, 0)
s = 156: (0, 18, 48, 16, 28, 35, 21, 53, 21, 14, 20, 0)
s = 157: (0, 23, 47, 16, 55, 15, 20, 73, 23, 19, 14, 0)
s = 158: (0, 19, 57, 19, 43, 16, 13, 33, 14, 17, 21, 0)
s = 159: (0, 16, 103, 28, 24, 26, 18, 30, 14, 15, 11, 0)
s = 160: (0, 15, 95, 26, 52, 28, 13, 27, 12, 13, 22, 0)
s = 161: (0, 20, 98, 22, 36, 22, 10, 48, 20, 28, 14, 0)
s = 162: (0, 18, 65, 18, 30, 15, 15, 33, 17, 12, 14, 0)
s = 163: (0, 18, 59, 22, 47, 21, 12, 43, 20, 19, 19, 0)
s = 164: (0, 14, 50, 24, 18, 25, 14, 40, 26, 17, 15, 0)
s = 165: (0, 17, 114, 22, 35, 15, 20, 41, 15, 24, 13, 0)
s = 166: (0, 29, 99, 30, 31, 17, 17, 38, 25, 28, 11, 0)
s = 167: (0, 17, 86, 17, 30, 19, 12, 26, 20, 28, 12, 0)
s = 168: (0, 25, 111, 29, 17, 27, 11, 54, 22, 15, 14, 0)
s = 169: (0, 15, 56, 32, 26, 22, 15, 30, 20, 22, 19, 0)
s = 170: (0, 20, 63, 13, 41, 22, 12, 34, 13, 25, 18, 0)
s = 171: (0, 19, 53, 19, 27, 37, 19, 34, 15, 18, 20, 0)
s = 172: (0, 18, 46, 20, 23, 24, 12, 47, 19, 15, 12, 0)
s = 173: (0, 17, 64, 14, 29, 19, 14, 24, 14, 13, 19, 0)
s = 174: (0, 20, 116, 13, 26, 15, 14, 35, 16, 26, 15, 0)
s = 175: (0, 30, 42, 30, 32, 20, 11, 43, 17, 22, 17, 0)
s = 176: (0, 14, 51, 22, 30, 25, 17, 33, 14, 17, 14, 0)
s = 177: (0, 27, 70, 25, 35, 17, 15, 36, 16, 20, 22, 0)
s = 178: (0, 22, 80, 25, 28, 37, 12, 43, 14, 14, 16, 0)
s = 179: (0, 22, 48, 27, 42, 18, 9, 41, 16, 17, 12, 0)
s = 180: (0, 28, 49, 31, 37, 16, 12, 63, 18, 17, 14, 0)
s = 181: (0, 24, 65, 29, 19, 14, 19, 41, 13, 24, 12, 0)
s = 182: (0, 17, 82, 33, 38, 17, 19, 43, 23, 20, 23, 0)
s = 183: (0, 17, 43, 24, 26, 25, 16, 52, 12, 30, 17, 0)
s = 184: (0, 27, 56, 38, 27, 22, 16, 42, 27, 13, 13, 0)
s = 185: (0, 20, 95, 21, 25, 18, 15, 44, 17, 12, 24, 0)
s = 186: (0, 25, 73, 18, 21, 15, 20, 35, 16, 17, 11, 0)
s = 187: (0, 20, 68, 22, 21, 18, 14, 47, 20, 13, 13, 0)
s = 188: (0, 16, 76, 17, 25, 16, 21, 59, 9, 12, 12, 0)
s = 189: (0, 15, 96, 27, 39, 25, 15, 22, 19, 23, 12, 0)
s = 190: (0, 16, 60, 24, 30, 33, 23, 58, 10, 14, 19, 0)
s = 191: (0, 23, 88, 26, 38, 26, 9, 47, 15, 19, 12, 0)
s = 192: (0, 24, 57, 19, 25, 22, 16, 25, 16, 18, 22, 0)
s = 193: (0, 35, 80, 37, 31, 26, 19, 56, 16, 24, 17, 0)
s = 194: (0, 16, 71, 23, 25, 17, 14, 48, 11, 23, 17, 0)
s = 195: (0, 19, 95, 24, 24, 14, 14, 42, 22, 23, 16, 0)
s = 196: (0, 17, 89, 29, 46, 13, 18, 35, 13, 19, 14, 0)
s = 197: (0, 34, 90, 25, 33, 23, 23, 47, 13, 20, 12, 0)
s = 198: (0, 23, 75, 18, 23, 15, 9, 42, 14, 16, 18, 0)
s = 199: (0, 26, 86, 32, 38, 20, 14, 40, 17, 14, 16, 0)
s = 200: (0, 27, 61, 29, 42, 20, 13, 36, 19, 20, 19, 0)
------------------------------------------------------------------------
RESOURCE k = 3
s = 1: (0, 23, 55, 38, 53, 12, 20, 55, 31, 22, 10, 0)
s = 2: (0, 20, 63, 28, 43, 10, 20, 44, 24, 21, 11, 0)
s = 3: (0, 15, 59, 23, 29, 10, 15, 35, 33, 25, 12, 0)
s = 4: (0, 31, 60, 21, 42, 8, 15, 38, 43, 15, 18, 0)
s = 5: (0, 13, 81, 19, 33, 8, 12, 32, 31, 17, 17, 0)
s = 6: (0, 15, 66, 19, 49, 8, 20, 40, 44, 14, 11, 0)
s = 7: (0, 13, 51, 28, 87, 16, 28, 39, 40, 12, 12, 0)
s = 8: (0, 31, 59, 31, 42, 18, 17, 39, 31, 16, 21, 0)
s = 9: (0, 17, 44, 18, 37, 11, 14, 27, 58, 15, 20, 0)
s = 10: (0, 14, 55, 21, 44, 18, 17, 52, 25, 20, 12, 0)
s = 11: (0, 16, 37, 18, 75, 12, 23, 23, 39, 32, 13, 0)
s = 12: (0, 17, 69, 17, 34, 9, 11, 63, 58, 13, 10, 0)
s = 13: (0, 24, 39, 15, 54, 14, 13, 28, 40, 22, 12, 0)
s = 14: (0, 19, 35, 22, 56, 11, 20, 24, 30, 18, 18, 0)
s = 15: (0, 37, 48, 18, 80, 15, 16, 41, 29, 13, 9, 0)
s = 16: (0, 17, 56, 22, 40, 9, 21, 41, 28, 28, 11, 0)
s = 17: (0, 16, 71, 37, 57, 19, 12, 45, 41, 16, 17, 0)
s = 18: (0, 12, 42, 16, 55, 10, 14, 46, 41, 22, 11, 0)
s = 19: (0, 14, 55, 17, 49, 14, 20, 47, 52, 16, 12, 0)
s = 20: (0, 15, 71, 21, 41, 10, 11, 60, 47, 21, 15, 0)
s = 21: (0, 17, 71, 27, 91, 11, 21, 44, 41, 25, 16, 0)
s = 22: (0, 27, 39, 21, 99, 20, 19, 33, 52, 21, 10, 0)
s = 23: (0, 16, 55, 19, 66, 17, 23, 44, 39, 15, 13, 0)
s = 24: (0, 11, 56, 17, 66, 10, 13, 53, 60, 20, 10, 0)
s = 25: (0, 24, 54, 40, 63, 12, 17, 41, 30, 28, 11, 0)
s = 26: (0, 25, 58, 43, 39, 18, 18, 31, 26, 23, 22, 0)
s = 27: (0, 26, 54, 33, 78, 12, 14, 26, 24, 17, 15, 0)
s = 28: (0, 25, 61, 25, 44, 14, 12, 47, 29, 16, 12, 0)
s = 29: (0, 21, 37, 29, 77, 7, 12, 34, 49, 15, 14, 0)
s = 30: (0, 16, 37, 22, 69, 12, 15, 42, 37, 22, 17, 0)
s = 31: (0, 21, 66, 19, 38, 11, 13, 29, 29, 28, 21, 0)
s = 32: (0, 17, 53, 37, 54, 10, 13, 58, 54, 21, 19, 0)
s = 33: (0, 13, 44, 17, 36, 16, 27, 40, 42, 22, 13, 0)
s = 34: (0, 32, 66, 14, 41, 10, 18, 24, 28, 12, 13, 0)
s = 35: (0, 19, 77, 20, 69, 15, 15, 50, 50, 24, 11, 0)
s = 36: (0, 12, 52, 33, 40, 11, 31, 49, 25, 21, 16, 0)
s = 37: (0, 25, 70, 22, 91, 9, 19, 52, 53, 25, 9, 0)
s = 38: (0, 26, 35, 24, 80, 9, 27, 28, 57, 28, 16, 0)
s = 39: (0, 14, 48, 16, 79, 14, 11, 24, 42, 18, 20, 0)
s = 40: (0, 21, 54, 26, 61, 13, 18, 34, 58, 17, 11, 0)
s = 41: (0, 14, 60, 17, 64, 17, 16, 51, 29, 23, 9, 0)
s = 42: (0, 14, 62, 28, 31, 17, 11, 34, 35, 19, 8, 0)
s = 43: (0, 29, 48, 19, 47, 10, 13, 59, 47, 19, 13, 0)
s = 44: (0, 26, 43, 44, 36, 20, 18, 30, 29, 16, 10, 0)
s = 45: (0, 26, 77, 19, 50, 15, 11, 57, 38, 12, 21, 0)
s = 46: (0, 25, 56, 26, 56, 11, 10, 25, 36, 18, 10, 0)
s = 47: (0, 33, 49, 27, 41, 11, 10, 42, 41, 12, 23, 0)
s = 48: (0, 18, 47, 33, 52, 16, 20, 35, 41, 35, 18, 0)
s = 49: (0, 11, 47, 14, 73, 10, 20, 54, 39, 23, 17, 0)
s = 50: (0, 22, 57, 25, 58, 14, 12, 45, 28, 30, 19, 0)
s = 51: (0, 14, 48, 37, 70, 10, 19, 41, 36, 18, 11, 0)
s = 52: (0, 16, 50, 31, 72, 13, 22, 34, 22, 21, 20, 0)
s = 53: (0, 14, 39, 19, 36, 11, 12, 54, 47, 24, 14, 0)
s = 54: (0, 34, 32, 31, 34, 8, 21, 28, 43, 36, 16, 0)
s = 55: (0, 12, 54, 16, 48, 7, 22, 43, 23, 22, 13, 0)
s = 56: (0, 16, 44, 29, 45, 13, 18, 25, 29, 23, 10, 0)
s = 57: (0, 13, 67, 30, 55, 17, 17, 30, 26, 16, 12, 0)
s = 58: (0, 22, 64, 21, 30, 8, 15, 37, 27, 20, 14, 0)
s = 59: (0, 25, 80, 24, 62, 14, 14, 55, 21, 11, 20, 0)
s = 60: (0, 16, 47, 26, 92, 9, 16, 46, 43, 25, 12, 0)
s = 61: (0, 20, 44, 26, 64, 8, 27, 37, 34, 13, 23, 0)
s = 62: (0, 17, 42, 30, 47, 11, 26, 49, 35, 26, 21, 0)
s = 63: (0, 25, 58, 29, 63, 11, 22, 29, 23, 30, 20, 0)
s = 64: (0, 27, 41, 26, 47, 13, 26, 30, 28, 17, 13, 0)
s = 65: (0, 24, 37, 18, 51, 10, 21, 51, 57, 14, 12, 0)
s = 66: (0, 24, 70, 23, 40, 9, 12, 26, 49, 16, 14, 0)
s = 67: (0, 29, 46, 17, 46, 12, 12, 35, 39, 31, 16, 0)
s = 68: (0, 20, 59, 33, 53, 12, 21, 35, 23, 16, 12, 0)
s = 69: (0, 23, 77, 25, 37, 9, 15, 27, 25, 16, 14, 0)
s = 70: (0, 12, 42, 32, 56, 9, 19, 33, 28, 30, 11, 0)
s = 71: (0, 15, 79, 19, 30, 10, 15, 67, 37, 22, 12, 0)
s = 72: (0, 20, 43, 28, 60, 9, 14, 28, 26, 24, 17, 0)
s = 73: (0, 18, 37, 24, 67, 9, 19, 29, 33, 26, 13, 0)
s = 74: (0, 20, 63, 17, 43, 14, 15, 40, 33, 20, 19, 0)
s = 75: (0, 22, 40, 32, 63, 12, 11, 33, 51, 13, 15, 0)
s = 76: (0, 26, 35, 20, 52, 7, 15, 32, 44, 13, 16, 0)
s = 77: (0, 24, 80, 27, 49, 19, 29, 41, 34, 26, 13, 0)
s = 78: (0, 23, 40, 19, 44, 13, 22, 54, 46, 13, 17, 0)
s = 79: (0, 15, 59, 32, 54, 18, 18, 36, 30, 23, 18, 0)
s = 80: (0, 32, 74, 31, 69, 11, 22, 34, 32, 23, 15, 0)
s = 81: (0, 14, 71, 33, 35, 10, 15, 43, 24, 29, 20, 0)
s = 82: (0, 13, 74, 16, 54, 14, 21, 41, 39, 13, 15, 0)
s = 83: (0, 25, 47, 42, 44, 12, 12, 28, 23, 21, 15, 0)
s = 84: (0, 14, 89, 27, 47, 13, 17, 36, 41, 18, 12, 0)
s = 85: (0, 21, 49, 30, 80, 10, 14, 34, 43, 20, 12, 0)
s = 86: (0, 26, 74, 19, 42, 13, 15, 46, 46, 16, 18, 0)
s = 87: (0, 17, 52, 40, 65, 14, 25, 69, 34, 17, 15, 0)
s = 88: (0, 22, 53, 25, 36, 10, 17, 28, 36, 14, 12, 0)
s = 89: (0, 25, 55, 24, 43, 10, 25, 40, 53, 16, 16, 0)
s = 90: (0, 18, 74, 26, 47, 9, 13, 42, 54, 15, 11, 0)
s = 91: (0, 17, 65, 36, 67, 12, 15, 42, 41, 19, 15, 0)
s = 92: (0, 23, 45, 19, 59, 16, 26, 57, 36, 22, 15, 0)
s = 93: (0, 19, 82, 18, 79, 9, 17, 32, 48, 17, 13, 0)
s = 94: (0, 20, 61, 33, 59, 13, 15, 41, 38, 23, 14, 0)
s = 95: (0, 16, 74, 36, 50, 11, 20, 37, 51, 21, 9, 0)
s = 96: (0, 21, 34, 17, 67, 10, 20, 47, 50, 15, 14, 0)
s = 97: (0, 23, 34, 22, 51, 14, 17, 47, 30, 32, 9, 0)
s = 98: (0, 19, 40, 16, 33, 11, 17, 32, 20, 30, 18, 0)
s = 99: (0, 26, 45, 18, 68, 8, 19, 49, 41, 16, 15, 0)
s = 100: (0, 24, 79, 36, 47, 15, 16, 41, 28, 13, 11, 0)
s = 101: (0, 16, 71, 23, 54, 14, 15, 62, 30, 21, 13, 0)
s = 102: (0, 26, 41, 21, 41, 11, 28, 33, 46, 20, 19, 0)
s = 103: (0, 15, 44, 30, 36, 11, 17, 34, 25, 21, 12, 0)
s = 104: (0, 20, 70, 28, 54, 13, 25, 32, 32, 13, 17, 0)
s = 105: (0, 21, 71, 33, 32, 14, 25, 61, 45, 24, 15, 0)
s = 106: (0, 26, 37, 29, 47, 8, 29, 53, 23, 13, 15, 0)
s = 107: (0, 21, 42, 21, 52, 14, 17, 28, 32, 15, 12, 0)
s = 108: (0, 23, 56, 38, 71, 14, 17, 36, 24, 17, 15, 0)
s = 109: (0, 29, 43, 28, 48, 13, 17, 36, 42, 24, 15, 0)
s = 110: (0, 15, 73, 22, 48, 12, 21, 56, 22, 14, 14, 0)
s = 111: (0, 19, 40, 17, 46, 12, 12, 33, 22, 20, 10, 0)
s = 112: (0, 16, 62, 34, 38, 9, 23, 34, 22, 16, 21, 0)
s = 113: (0, 15, 55, 21, 60, 8, 13, 32, 42, 20, 20, 0)
s = 114: (0, 16, 54, 22, 44, 12, 10, 50, 57, 27, 13, 0)
s = 115: (0, 14, 61, 16, 53, 15, 21, 32, 30, 26, 17, 0)
s = 116: (0, 16, 47, 16, 43, 14, 30, 30, 32, 18, 10, 0)
s = 117: (0, 22, 37, 26, 31, 12, 14, 37, 35, 17, 10, 0)
s = 118: (0, 21, 46, 28, 48, 9, 20, 44, 26, 19, 15, 0)
s = 119: (0, 19, 57, 26, 43, 16, 12, 56, 37, 16, 17, 0)
s = 120: (0, 13, 82, 21, 49, 17, 23, 35, 36, 13, 16, 0)
s = 121: (0, 15, 47, 18, 51, 14, 22, 77, 29, 26, 17, 0)
s = 122: (0, 13, 69, 15, 38, 11, 33, 84, 29, 24, 19, 0)
s = 123: (0, 19, 51, 24, 39, 13, 15, 36, 28, 21, 11, 0)
s = 124: (0, 26, 75, 28, 64, 10, 13, 38, 49, 25, 11, 0)
s = 125: (0, 24, 73, 15, 66, 14, 14, 27, 45, 27, 10, 0)
s = 126: (0, 21, 71, 26, 60, 10, 15, 25, 55, 17, 14, 0)
s = 127: (0, 12, 56, 31, 52, 14, 19, 48, 35, 17, 13, 0)
s = 128: (0, 24, 41, 15, 56, 11, 19, 41, 44, 16, 9, 0)
s = 129: (0, 15, 32, 18, 33, 14, 12, 45, 51, 23, 18, 0)
s = 130: (0, 27, 50, 29, 38, 19, 21, 35, 29, 28, 17, 0)
s = 131: (0, 19, 76, 37, 41, 9, 12, 52, 23, 31, 10, 0)
s = 132: (0, 26, 76, 15, 46, 14, 15, 28, 40, 19, 13, 0)
s = 133: (0, 14, 54, 24, 62, 8, 15, 71, 49, 23, 15, 0)
s = 134: (0, 11, 55, 39, 41, 10, 17, 41, 29, 21, 12, 0)
s = 135: (0, 13, 41, 22, 42, 8, 27, 25, 33, 33, 16, 0)
s = 136: (0, 15, 85, 33, 67, 12, 12, 59, 39, 21, 16, 0)
s = 137: (0, 20, 58, 18, 67, 13, 19, 25, 36, 19, 14, 0)
s = 138: (0, 22, 51, 27, 72, 12, 20, 46, 58, 26, 17, 0)
s = 139: (0, 18, 35, 23, 74, 14, 23, 33, 30, 22, 17, 0)
s = 140: (0, 13, 49, 19, 75, 11, 16, 48, 34, 17, 10, 0)
s = 141: (0, 16, 41, 26, 86, 8, 16, 63, 22, 29, 23, 0)
s = 142: (0, 16, 71, 21, 53, 15, 25, 42, 25, 17, 17, 0)
s = 143: (0, 29, 87, 27, 51, 11, 21, 40, 53, 21, 19, 0)
s = 144: (0, 31, 49, 17, 30, 14, 18, 32, 43, 20, 12, 0)
s = 145: (0, 19, 47, 24, 83, 14, 11, 47, 33, 28, 12, 0)
s = 146: (0, 24, 41, 25, 43, 12, 15, 58, 22, 15, 30, 0)
s = 147: (0, 29, 74, 25, 73, 13, 23, 61, 44, 20, 9, 0)
s = 148: (0, 25, 48, 27, 77, 14, 27, 26, 29, 21, 22, 0)
s = 149: (0, 20, 51, 26, 39, 11, 12, 45, 31, 15, 12, 0)
s = 150: (0, 24, 54, 21, 39, 9, 13, 25, 36, 17, 14, 0)
s = 151: (0, 24, 43, 15, 60, 11, 17, 26, 34, 21, 13, 0)
s = 152: (0, 31, 38, 19, 41, 8, 16, 30, 28, 18, 18, 0)
s = 153: (0, 27, 53, 17, 60, 17, 26, 39, 32, 12, 17, 0)
s = 154: (0, 25, 54, 31, 53, 13, 23, 27, 37, 14, 8, 0)
s = 155: (0, 13, 73, 19, 48, 10, 22, 41, 49, 20, 13, 0)
s = 156: (0, 18, 39, 16, 50, 21, 25, 53, 46, 15, 18, 0)
s = 157: (0, 23, 38, 16, 99, 9, 24, 73, 52, 21, 12, 0)
s = 158: (0, 19, 46, 19, 76, 10, 15, 33, 31, 19, 18, 0)
s = 159: (0, 16, 82, 28, 43, 16, 21, 30, 32, 17, 10, 0)
s = 160: (0, 15, 76, 26, 94, 17, 16, 27, 27, 15, 19, 0)
s = 161: (0, 20, 78, 22, 65, 14, 12, 48, 45, 31, 13, 0)
s = 162: (0, 18, 52, 18, 53, 9, 18, 33, 39, 14, 12, 0)
s = 163: (0, 18, 47, 22, 85, 13, 14, 43, 45, 21, 17, 0)
s = 164: (0, 14, 40, 24, 31, 15, 17, 40, 58, 19, 13, 0)
s = 165: (0, 17, 92, 22, 62, 9, 24, 41, 33, 27, 12, 0)
s = 166: (0, 29, 80, 30, 56, 10, 20, 38, 56, 31, 10, 0)
s = 167: (0, 17, 69, 17, 54, 12, 14, 26, 45, 31, 10, 0)
s = 168: (0, 25, 89, 29, 30, 17, 13, 54, 48, 17, 13, 0)
s = 169: (0, 15, 45, 32, 46, 13, 18, 30, 45, 24, 16, 0)
s = 170: (0, 20, 50, 13, 73, 13, 14, 34, 29, 28, 16, 0)
s = 171: (0, 19, 42, 19, 49, 22, 23, 34, 33, 20, 17, 0)
s = 172: (0, 18, 37, 20, 41, 15, 15, 47, 43, 16, 11, 0)
s = 173: (0, 17, 51, 14, 51, 12, 17, 24, 30, 14, 17, 0)
s = 174: (0, 20, 93, 13, 46, 9, 17, 35, 36, 29, 13, 0)
s = 175: (0, 30, 34, 30, 58, 12, 13, 43, 37, 24, 15, 0)
s = 176: (0, 14, 41, 22, 53, 15, 20, 33, 31, 19, 12, 0)
s = 177: (0, 27, 56, 25, 63, 10, 18, 36, 36, 22, 19, 0)
s = 178: (0, 22, 64, 25, 51, 23, 14, 43, 30, 16, 14, 0)
s = 179: (0, 22, 38, 27, 75, 11, 10, 41, 35, 19, 11, 0)
s = 180: (0, 28, 40, 31, 65, 10, 14, 63, 39, 19, 12, 0)
s = 181: (0, 24, 52, 29, 35, 9, 23, 41, 28, 26, 11, 0)
s = 182: (0, 17, 65, 33, 68, 10, 22, 43, 51, 22, 20, 0)
s = 183: (0, 17, 34, 24, 47, 15, 19, 52, 27, 33, 15, 0)
s = 184: (0, 27, 45, 38, 48, 13, 19, 42, 60, 14, 12, 0)
s = 185: (0, 20, 76, 21, 45, 11, 18, 44, 38, 13, 21, 0)
s = 186: (0, 25, 58, 18, 38, 9, 24, 35, 35, 19, 10, 0)
s = 187: (0, 20, 54, 22, 38, 11, 17, 47, 45, 14, 11, 0)
s = 188: (0, 16, 61, 17, 45, 10, 25, 59, 20, 14, 11, 0)
s = 189: (0, 15, 77, 27, 70, 15, 18, 22, 41, 26, 11, 0)
s = 190: (0, 16, 48, 24, 54, 20, 27, 58, 21, 16, 17, 0)
s = 191: (0, 23, 70, 26, 68, 16, 11, 47, 32, 21, 10, 0)
s = 192: (0, 24, 46, 19, 44, 13, 19, 25, 35, 20, 19, 0)
s = 193: (0, 35, 64, 37, 55, 16, 23, 56, 34, 27, 15, 0)
s = 194: (0, 16, 57, 23, 44, 11, 17, 48, 23, 26, 15, 0)
s = 195: (0, 19, 76, 24, 43, 9, 17, 42, 49, 25, 14, 0)
s = 196: (0, 17, 72, 29, 83, 8, 21, 35, 28, 21, 12, 0)
s = 197: (0, 34, 72, 25, 58, 14, 27, 47, 29, 22, 11, 0)
s = 198: (0, 23, 60, 18, 41, 9, 11, 42, 30, 18, 16, 0)
s = 199: (0, 26, 69, 32, 69, 12, 17, 40, 37, 15, 14, 0)
s = 200: (0, 27, 49, 29, 75, 12, 15, 36, 42, 22, 16, 0)
************************************************************************
ES/LS-VALUES:
jobnr.   ES(i)    LS(i)
------------------------------------------------------------------------
  0        0        0
  1        0       46
  2        0       42
  3        0       50
  4       11       66
  5        7       56
  6       11       54
  7       16       60
  8       11       74
  9       32       77
 10        5       76
 11       35       81
************************************************************************
BIG-M-VALUES:
M1 = 85, M2 = 371
************************************************************************
